400, 39842
131, 131
221, 221
238, 238
92, 92
71, 71
106, 106
121, 121
385, 385
379, 379
188, 188
302, 302
388, 388
128, 128
140, 140
187, 187
33, 33
80, 80
385, 385
121, 121
219, 219
376, 376
66, 66
129, 129
194, 194
208, 208
307, 307
47, 47
304, 304
168, 168
268, 268
274, 274
274, 274
241, 241
328, 328
124, 124
36, 36
390, 390
328, 328
397, 397
325, 325
69, 69
231, 231
150, 150
202, 202
13, 13
137, 137
12, 12
286, 286
149, 149
172, 172
220, 220
7, 7
231, 231
385, 385
213, 213
212, 212
135, 135
164, 164
342, 342
66, 66
324, 324
150, 150
101, 101
30, 30
234, 234
140, 140
265, 265
37, 37
226, 226
208, 208
149, 149
167, 167
295, 295
341, 341
2, 2
137, 137
69, 69
361, 361
151, 151
394, 394
15, 15
195, 195
152, 152
286, 286
45, 45
75, 75
168, 168
374, 374
225, 225
137, 137
220, 220
192, 192
228, 228
229, 229
301, 301
282, 282
290, 290
142, 142
393, 393
274, 274
127, 127
6, 6
375, 375
89, 89
228, 228
266, 266
246, 246
167, 167
282, 282
288, 288
289, 289
280, 280
114, 114
153, 153
80, 80
339, 339
126, 126
101, 101
254, 254
11, 11
48, 48
390, 390
147, 147
78, 78
93, 93
253, 253
141, 141
26, 26
285, 285
193, 193
48, 48
400, 400
145, 145
302, 302
183, 183
321, 321
369, 369
153, 153
389, 389
230, 230
82, 82
162, 162
141, 141
204, 204
65, 65
370, 370
26, 26
203, 203
287, 287
308, 308
204, 204
151, 151
376, 376
288, 288
352, 352
367, 367
289, 289
306, 306
298, 298
355, 355
94, 94
137, 137
322, 322
323, 323
125, 125
92, 92
200, 200
211, 211
162, 162
311, 311
389, 389
282, 282
176, 176
147, 147
255, 255
266, 266
193, 193
355, 355
249, 249
170, 170
50, 50
90, 90
149, 149
78, 78
238, 238
379, 379
375, 375
8, 8
278, 278
216, 216
7, 7
360, 360
329, 329
140, 140
354, 354
63, 63
230, 230
36, 36
158, 158
273, 273
171, 171
295, 295
56, 56
185, 185
72, 72
71, 71
364, 364
326, 326
133, 133
192, 192
80, 80
291, 291
141, 141
205, 205
142, 142
117, 117
182, 182
106, 106
172, 172
397, 397
270, 270
67, 67
393, 393
221, 221
84, 84
268, 268
102, 102
184, 184
351, 351
202, 202
270, 270
129, 129
111, 111
142, 142
19, 19
197, 197
174, 174
306, 306
7, 7
213, 213
131, 131
188, 188
357, 357
92, 92
35, 35
143, 143
266, 266
111, 111
228, 228
17, 17
66, 66
210, 210
319, 319
344, 344
67, 67
199, 199
273, 273
397, 397
48, 48
17, 17
223, 223
322, 322
267, 267
375, 375
355, 355
303, 303
123, 123
67, 67
295, 295
264, 264
101, 101
346, 346
317, 317
379, 379
314, 314
135, 135
328, 328
54, 54
285, 285
224, 224
11, 11
37, 37
15, 15
74, 74
348, 348
41, 41
345, 345
297, 297
277, 277
212, 212
69, 69
95, 95
359, 359
64, 64
282, 282
165, 165
250, 250
159, 159
130, 130
375, 375
182, 182
365, 365
281, 281
10, 10
391, 391
306, 306
116, 116
297, 297
65, 65
309, 309
92, 92
189, 189
224, 224
170, 170
294, 294
331, 331
201, 201
331, 331
256, 256
183, 183
131, 131
244, 244
217, 217
22, 22
92, 92
280, 280
350, 350
97, 97
249, 249
290, 290
109, 109
325, 325
190, 190
70, 70
40, 40
23, 23
358, 358
181, 181
7, 7
198, 198
128, 128
383, 383
234, 234
233, 233
246, 246
195, 195
58, 58
167, 167
59, 59
146, 146
395, 395
341, 341
64, 64
82, 82
49, 49
217, 217
51, 51
206, 206
395, 395
270, 270
340, 340
75, 75
128, 128
337, 337
389, 389
341, 341
52, 52
23, 23
190, 190
103, 103
183, 183
193, 193
123, 123
330, 330
203, 203
136, 136
18, 18
277, 277
1, 1
67, 67
292, 292
194, 194
126, 126
24, 24
240, 240
146, 146
47, 47
46, 46
270, 270
326, 326
38, 38
160, 160
31, 31
190, 190
79, 79
142, 142
126, 126
319, 319
228, 228
350, 350
